Route #1:
Route #2: 31 21 13
Route #3: 25
Route #4: 26
Route #5: 16 7 5 17
Route #6: 24 29 10 4 18 19 22
Route #7: 6 27
Route #8: 20 8 9
Route #9: 12
Route #10: 2 23 28
Route #11: 14
Route #12: 30 11 15 3
Route #13: 1

Cost: 2115.2364086482266
